WARNING: for repeatability, setting FPU to use double precision
============================[ Problem Statistics ]=============================
|                                                                             |
|  Number of variables:           263                                         |
|  Number of clauses:             994                                         |
|  Parse time:                   0.00 s                                       |
|                                                                             |
============================[ Search Statistics ]==============================
| Conflicts |          ORIGINAL         |          LEARNT          | Progress |
|           |    Vars  Clauses Literals |    Limit  Clauses Lit/Cl |          |
===============================================================================
===============================================================================
restarts              : 1
conflicts             : 8              (inf /sec)
decisions             : 12             (0.00 % random) (inf /sec)
propagations          : 422            (inf /sec)
conflict literals     : 16             (20.00 % deleted)
Memory used           : 19.00 MB
CPU time              : 0 s

UNSATISFIABLE
